5 5
5 2 2 10 3 13 2 3 6 5 13 2 1 16 5 3 1 2 12 2 5 18 1 18
4 5 2 17 5 18 1 5 4 20 3 9 5 2 16 4 8 5 3 3 8 1 15 4 3 20 4 11 1 19 5 18 4 4 20 3 17 2 9 1 11
6 5 4 15 3 10 2 12 5 4 1 17 3 4 4 5 8 3 18 3 5 16 3 9 1 10 4 5 4 4 2 3 20 2 5 2 1 19 4 16 1 5 16
4 3 3 13 1 14 5 10 2 5 19 2 4 2 5 15 2 12 1 5 13
8 5 4 16 5 17 1 12 2 3 3 18 2 5 17 4 16 4 3 14 5 18 4 11 2 6 4 1 9 5 14 3 6 2 9 5 1 12 4 8 5 20 2 20 3 11 2 4 4 1 15 1 5 6 5 3 8 5 6 4 8 2 13 1 17